\* AnimalFoodProd *\
Minimize
Cost: 0.84 Use_Maize_Granuales + 0.59 Use_Maize_Powder
 + 0.54 Use_Molasses_Granuales + 0.29 Use_Molasses_Powder
 + 0.8 Use_Oats_Granuales + 0.55 Use_Oats_Powder
Subject To
Bounds
 Use_Maize_Granuales free
 Use_Maize_Powder free
 Use_Molasses_Granuales free
 Use_Molasses_Powder free
 Use_Oats_Granuales free
 Use_Oats_Powder free
End
